StudentsNr = 10;
InstructorsNr = 100;
DaysNr = 1;
SlotsPerDay = 20;
AvailabilitySlotsLenght = 10;
RoomNr = 1;
ProgrammNr = 1;
DegreeNr = 3;
RolesNr = 0;
CoursesNr = 5;
InstructorsProgramm = [{1}, {1}, {1}, {1}, {1}, {1}, {1}, {1}, {1}, {1}, {1}, {1}, {1}, {1}, {1}, {1}, {1}, {1}, {1}, {1}, {1}, {1}, {1}, {1}, {1}, {1}, {1}, {1}, {1}, {1}, {1}, {1}, {1}, {1}, {1}, {1}, {1}, {1}, {1}, {1}, {1}, {1}, {1}, {1}, {1}, {1}, {1}, {1}, {1}, {1}, {1}, {1}, {1}, {1}, {1}, {1}, {1}, {1}, {1}, {1}, {1}, {1}, {1}, {1}, {1}, {1}, {1}, {1}, {1}, {1}, {1}, {1}, {1}, {1}, {1}, {1}, {1}, {1}, {1}, {1}, {1}, {1}, {1}, {1}, {1}, {1}, {1}, {1}, {1}, {1}, {1}, {1}, {1}, {1}, {1}, {1}, {1}, {1}, {1}, {1}];
InstructorRolesPerProgramm = array2d(1..ProgrammNr,{},[]);
InstructorsAvailability = [|0, 1, |1, 1, |1, 1, |1, 1, |1, 1, |0, 1, |1, 1, |1, 1, |0, 1, |0, 0, |1, 1, |1, 0, |1, 1, |1, 0, |1, 1, |1, 1, |0, 0, |0, 1, |1, 0, |1, 0, |1, 0, |0, 1, |0, 1, |0, 0, |1, 1, |1, 0, |1, 1, |1, 1, |1, 1, |0, 1, |1, 1, |1, 1, |1, 1, |1, 1, |0, 0, |1, 1, |0, 1, |0, 1, |1, 1, |0, 1, |1, 1, |1, 1, |1, 1, |0, 1, |1, 1, |1, 1, |1, 1, |1, 1, |0, 0, |1, 0, |1, 0, |0, 1, |0, 0, |0, 1, |1, 1, |1, 1, |1, 1, |0, 1, |1, 1, |1, 1, |0, 1, |1, 1, |0, 1, |1, 1, |1, 0, |0, 0, |1, 1, |0, 1, |1, 1, |1, 1, |1, 1, |1, 1, |1, 1, |1, 1, |0, 0, |1, 1, |1, 1, |1, 0, |1, 1, |1, 1, |0, 1, |0, 0, |1, 1, |1, 1, |1, 1, |1, 0, |0, 1, |1, 1, |1, 1, |0, 0, |0, 0, |1, 1, |0, 0, |1, 1, |0, 0, |0, 0, |1, 1, |0, 1, |1, 1, |1, 0|];
StudentsProgramm = [1, 1, 1, 1, 1, 1, 1, 1, 1, 1];
StudentsDegree = [3, 3, 2, 3, 1, 2, 1, 3, 3, 1];
StudentsSupervisorId = [55, 11, 95, 87, 62, 66, 29, 27, 33, 52];
StudentsCourseIds = [{3, 4, 5}, {2, 3, 5}, {1, 2, 3, 4, 5}, {1, 4, 5}, {2, 3, 5}, {1, 2, 3, 4, 5}, {2, 3, 5}, {1, 2, 4}, {3, 4, 5}, {2, 4, 5}];
StudentsAvailability = [|1, 1, |1, 1, |1, 1, |0, 0, |0, 1, |0, 1, |0, 0, |1, 1, |1, 1, |0, 0|];
TheoryticalMinCard = [3, 3, 5, 4, 3, 5, 3, 3, 3, 3];
CoursesInstructorIds = [{4, 8, 13, 21, 27, 28, 35, 40, 44, 47, 55, 61, 63, 95, 99}, {1, 2, 5, 7, 11, 12, 13, 14, 16, 17, 18, 19, 20, 21, 23, 24, 25, 28, 29, 30, 31, 32, 33, 35, 37, 39, 40, 41, 47, 48, 49, 51, 52, 55, 58, 59, 60, 61, 62, 63, 64, 65, 66, 67, 68, 69, 70, 71, 72, 74, 75, 76, 77, 81, 82, 83, 84, 85, 86, 89, 90, 91, 95, 97, 99}, {2, 5, 6, 8, 10, 11, 12, 15, 16, 17, 18, 19, 20, 21, 22, 25, 26, 27, 29, 33, 36, 37, 38, 39, 41, 45, 48, 49, 50, 51, 52, 53, 56, 60, 61, 63, 65, 66, 67, 69, 70, 74, 79, 81, 82, 84, 85, 86, 87, 89, 90, 91, 92, 95, 96, 99, 100}, {1, 2, 4, 5, 7, 8, 9, 10, 11, 13, 14, 15, 16, 19, 21, 22, 23, 24, 26, 28, 30, 31, 32, 33, 34, 35, 38, 39, 43, 46, 47, 48, 53, 58, 60, 61, 62, 63, 64, 66, 67, 68, 69, 70, 71, 72, 73, 77, 78, 79, 81, 83, 85, 86, 90, 91, 92, 93, 95, 97, 98, 99, 100}, {4, 5, 6, 9, 10, 12, 16, 19, 23, 25, 28, 30, 31, 33, 39, 40, 54, 55, 58, 60, 61, 62, 63, 68, 69, 76, 78, 81, 84, 86, 89, 90, 96, 97, 99, 100}];
RolesDemands = [];
RolesContinuity = [];
ExamLen = [1, 1, 2, 1, 2, 2, 2, 1, 1, 2];
LunchTsMinLen = 1;
LunchStarts = [9..15];
SupervisorAvailable = 5;
OptimalLunchLenght = [1, 1];
OptimalStartTs = [1, 0];
OptimalFinishTs = [1, 20];
MinimizeRooms = 200;
RolesSoftContinuity = array2d(1..2,{},[]);
SameDegreeInRoom = 10;
Mergeability = 1;
